41
75
60	2
59	2
58	2
57	3
56	1
55	1
54	3
53	4
52	3
51	1
47	2
46	1
44	1
43	1
42	1
41	3
40	3
39	2
38	5
37	5
35	4
34	4
32	2
30	3
29	3
28	3
27	2
26	7
21	5
20	3
19	1
18	2
17	1
16	2
15	3
14	1
12	1
10	3
9	1
8	2
7	1
